Set parameter WLSAccessID
Set parameter WLSSecret
Set parameter LicenseID to value 2604445
Academic license 2604445 - for non-commercial use only - registered to an___@um.edu.mt
Set parameter Seed to value 23
Set parameter TimeLimit to value 14400
Gurobi Optimizer version 12.0.2 build v12.0.2rc0 (linux64 - "Ubuntu 22.04.5 LTS")

CPU model: Intel(R) Core(TM) i5-10400 CPU @ 2.90GHz, instruction set [SSE2|AVX|AVX2]
Thread count: 6 physical cores, 12 logical processors, using up to 12 threads

Non-default parameters:
TimeLimit  14400
Seed  23

Academic license 2604445 - for non-commercial use only - registered to an___@um.edu.mt
Optimize a model with 2444929 rows, 39766 columns and 5005435 nonzeros
Model fingerprint: 0x777b59d6
Variable types: 0 continuous, 39766 integer (30829 binary)
Coefficient statistics:
  Matrix range     [1e+00, 6e+01]
  Objective range  [7e-08, 2e-02]
  Bounds range     [1e+00, 3e+02]
  RHS range        [1e+00, 6e+01]
Presolve removed 17977 rows and 13628 columns (presolve time = 5s)...
Presolve removed 18057 rows and 13734 columns (presolve time = 10s)...
Presolve removed 18057 rows and 13734 columns
Presolve time: 12.35s
Presolved: 2426872 rows, 26032 columns, 4937770 nonzeros
Variable types: 0 continuous, 26032 integer (18102 binary)
Deterministic concurrent LP optimizer: primal simplex, dual simplex, and barrier
Showing barrier log only...

Root barrier log...

Ordering time: 0.01s

Barrier statistics:
 Dense cols : 4
 Free vars  : 157
 AA' NZ     : 4.994e+04
 Factor NZ  : 6.665e+04 (roughly 40 MB of memory)
 Factor Ops : 1.147e+07 (less than 1 second per iteration)
 Threads    : 3

                  Objective                Residual
Iter       Primal          Dual         Primal    Dual     Compl     Time
   0  -6.82372460e+05  5.00000000e+00  1.72e+00 5.60e+01  1.95e+01    29s
   1  -2.80191805e+05  1.42159295e+01  4.87e-04 2.02e+01  4.09e+00    29s

Barrier performed 1 iterations in 29.24 seconds (22.79 work units)
Barrier solve interrupted - model solved by another algorithm

Concurrent spin time: 0.08s

Solved with dual simplex

Root simplex log...

Iteration    Objective       Primal Inf.    Dual Inf.      Time
    1089    3.2669303e-02   0.000000e+00   0.000000e+00     29s

Root simplex log...

Iteration    Objective       Primal Inf.    Dual Inf.      Time
    1092    3.2667613e-02   0.000000e+00   0.000000e+00     29s
Extra simplex iterations from dual to original model: 3

Use crossover to convert LP symmetric solution to basic solution...

Root crossover log...

      26 DPushes remaining with DInf 2.9109721e-04                32s

   11127 PPushes remaining with PInf 0.0000000e+00                32s
    5229 PPushes remaining with PInf 0.0000000e+00                37s
       0 PPushes remaining with PInf 0.0000000e+00                39s

  Push phase complete: Pinf 0.0000000e+00, Dinf 1.0136470e-18     39s


Root simplex log...

Iteration    Objective       Primal Inf.    Dual Inf.      Time
   12222    3.2667613e-02   0.000000e+00   0.000000e+00     40s
   12222    3.2667613e-02   0.000000e+00   0.000000e+00     41s

Root relaxation: objective 3.266761e-02, 12222 iterations, 19.22 seconds (13.84 work units)
Total elapsed time = 46.15s (DegenMoves)
Total elapsed time = 51.12s (DegenMoves)
Total elapsed time = 55.45s (DegenMoves)
Total elapsed time = 60.15s (DegenMoves)

    Nodes    |    Current Node    |     Objective Bounds      |     Work
 Expl Unexpl |  Obj  Depth IntInf | Incumbent    BestBd   Gap | It/Node Time

     0     0    0.03267    0 1328          -    0.03267      -     -   66s
     0     0    0.03290    0 2340          -    0.03290      -     -  117s
     0     0    0.03290    0 2339          -    0.03290      -     -  135s
     0     0    0.03293    0 2215          -    0.03293      -     -  177s
     0     0    0.03293    0 2079          -    0.03293      -     -  191s
     0     0    0.03298    0 3224          -    0.03298      -     -  265s
     0     0    0.03298    0 3247          -    0.03298      -     -  284s
     0     0    0.03311    0 4190          -    0.03311      -     -  383s
     0     0    0.03312    0 3999          -    0.03312      -     -  405s
     0     0    0.03322    0 4147          -    0.03322      -     -  520s
     0     0    0.03322    0 5185          -    0.03322      -     -  552s
     0     0    0.03324    0 4983          -    0.03324      -     -  693s
     0     0    0.03324    0 3573          -    0.03324      -     -  713s
     0     0    0.03331    0 4282          -    0.03331      -     -  843s
     0     0    0.03331    0 4068          -    0.03331      -     -  906s
     0     0    0.03332    0 4564          -    0.03332      -     - 1030s
     0     0    0.03333    0 5527          -    0.03333      -     - 1100s
     0     0    0.03336    0 4475          -    0.03336      -     - 1213s
     0     0    0.03336    0 5606          -    0.03336      -     - 1284s
     0     0    0.03340    0 4944          -    0.03340      -     - 1425s
     0     0    0.03340    0 5018          -    0.03340      -     - 1482s
     0     0    0.03340    0 5189          -    0.03340      -     - 1643s
     0     0    0.03341    0 3711          -    0.03341      -     - 1677s
     0     0    0.03347    0 4772          -    0.03347      -     - 1795s
     0     0    0.03347    0 4899          -    0.03347      -     - 1881s
     0     0    0.03351    0 4510          -    0.03351      -     - 2022s
     0     0    0.03351    0 5210          -    0.03351      -     - 2091s
     0     0    0.03351    0 6256          -    0.03351      -     - 2259s
     0     0    0.03351    0 5937          -    0.03351      -     - 2366s
     0     0    0.03351    0 4556          -    0.03351      -     - 2589s
     0     0    0.03351    0 4664          -    0.03351      -     - 2668s
     0     0    0.03355    0 5402          -    0.03355      -     - 2873s
     0     0    0.03355    0 4930          -    0.03355      -     - 2979s
     0     0    0.03355    0 4656          -    0.03355      -     - 3145s
     0     0    0.03355    0 5598          -    0.03355      -     - 3240s
     0     0    0.03355    0 5441          -    0.03355      -     - 3479s
     0     0    0.03355    0 6058          -    0.03355      -     - 3634s
     0     0    0.03357    0 4248          -    0.03357      -     - 3839s
     0     0    0.03357    0 6321          -    0.03357      -     - 4000s
     0     0    0.03358    0 5527          -    0.03358      -     - 4288s
     0     0    0.03358    0 7481          -    0.03358      -     - 4412s
     0     0    0.03361    0 6748          -    0.03361      -     - 4748s
     0     0    0.03361    0 7829          -    0.03361      -     - 4925s
     0     0    0.03361    0 7168          -    0.03361      -     - 5228s
     0     0    0.03362    0 4811          -    0.03362      -     - 5329s
     0     0    0.03362    0 7216          -    0.03362      -     - 5581s
     0     0    0.03362    0 5602          -    0.03362      -     - 5699s
     0     0    0.03363    0 6150          -    0.03363      -     - 6027s
     0     0    0.03364    0 5972          -    0.03364      -     - 6167s
     0     0    0.03364    0 6498          -    0.03364      -     - 6578s
     0     0    0.03364    0 6200          -    0.03364      -     - 6735s
     0     0    0.03364    0 6731          -    0.03364      -     - 7079s
     0     0    0.03364    0 7284          -    0.03364      -     - 7293s
     0     0    0.03365    0 6110          -    0.03365      -     - 7713s
     0     0    0.03367    0 6706          -    0.03367      -     - 7864s
     0     0    0.03367    0 6975          -    0.03367      -     - 8183s
     0     0    0.03368    0 7430          -    0.03368      -     - 8344s
     0     0    0.03368    0 6605          -    0.03368      -     - 8742s
     0     0    0.03368    0 7013          -    0.03368      -     - 9055s
     0     0    0.03368    0 8443          -    0.03368      -     - 9579s
     0     0    0.03368    0 6735          -    0.03368      -     - 9814s
     0     0    0.03368    0 6531          -    0.03368      -     - 10331s
     0     0    0.03368    0 6519          -    0.03368      -     - 10440s
H    0     0                       5.0043685    0.03368  99.3%     - 10639s
H    0     0                       4.1131299    0.03368  99.2%     - 10639s
H    0     0                       3.9923186    0.03368  99.2%     - 10644s
H    0     0                       3.6751163    0.03368  99.1%     - 10644s
     0     2    0.03368    0 6519    3.67512    0.03368  99.1%     - 10664s
     1     3    0.03368    1 5984    3.67512    0.03368  99.1%  5821 10743s
     2     4    0.10931    1 5921    3.67512    0.03368  99.1% 33500 11196s
     3     5    0.03386    2 6928    3.67512    0.03368  99.1% 49188 11971s
     4     6    0.19997    2 8202    3.67512    0.03368  99.1% 58471 13153s

Cutting planes:
  Gomory: 279
  Cover: 2217
  Implied bound: 3689
  Clique: 4251
  MIR: 4331
  StrongCG: 172
  Zero half: 2915
  RLT: 581
  Relax-and-lift: 2754

Explored 5 nodes (1181949 simplex iterations) in 14400.73 seconds (18067.94 work units)
Thread count was 12 (of 12 available processors)

Solution count 4: 3.67512 3.99232 4.11313 5.00437 

Time limit reached
Best objective 3.675116311908e+00, best bound 3.368156789842e-02, gap 99.0835%
Objective Function at this solution: [[18, 19, 1], [18, 19, 2], [18, 19, 3], [18, 19, 4], [18, 19, 6], [18, 19, 7], [18, 19, 8], [18, 19, 9], [18, 19, 10], [18, 19, 11], [18, 19, 12], [18, 19, 13], [18, 19, 14], [18, 19, 15], [18, 19, 16], [18, 19, 17], [18, 19, 18], [18, 19, 19], [18, 19, 20], [18, 19, 21], [18, 19, 22], [18, 19, 23], [18, 19, 24], [18, 19, 25], [18, 127, 26], [19, 20, 1], [19, 20, 2], [19, 20, 3], [19, 20, 4], [19, 20, 6], [19, 20, 7], [19, 20, 8], [19, 20, 9], [19, 20, 10], [19, 20, 11], [19, 20, 12], [19, 20, 13], [19, 20, 14], [19, 20, 15], [19, 20, 16], [19, 20, 17], [19, 20, 18], [19, 20, 19], [19, 20, 20], [19, 20, 21], [19, 20, 22], [19, 20, 23], [19, 20, 24], [19, 20, 25], [19, 20, 26], [19, 127, 5], [20, 219, 1], [20, 219, 2], [20, 219, 3], [20, 219, 4], [20, 219, 6], [20, 219, 7], [20, 219, 8], [20, 219, 9], [20, 219, 10], [20, 219, 11], [20, 219, 12], [20, 219, 13], [20, 219, 14], [20, 219, 15], [20, 219, 16], [20, 219, 17], [20, 219, 18], [20, 219, 19], [20, 219, 20], [20, 219, 21], [20, 219, 22], [20, 219, 23], [20, 219, 24], [20, 219, 25], [20, 219, 26], [38, 19, 5], [39, 139, 5], [106, 107, 26], [107, 108, 26], [108, 109, 26], [109, 110, 26], [110, 111, 26], [111, 112, 26], [112, 113, 26], [113, 141, 26], [126, 259, 5], [126, 259, 26], [127, 19, 26], [127, 39, 5], [128, 38, 5], [128, 129, 26], [129, 128, 5], [129, 130, 26], [130, 129, 5], [130, 137, 26], [139, 126, 5], [141, 142, 26], [142, 143, 26], [143, 144, 26], [144, 145, 26], [145, 126, 26], [147, 130, 5], [148, 147, 5], [149, 148, 5], [168, 149, 5], [169, 168, 5], [170, 169, 5], [171, 170, 5], [172, 171, 5], [173, 172, 5], [174, 173, 5], [183, 174, 5], [208, 209, 1], [208, 209, 2], [208, 209, 3], [208, 209, 4], [208, 209, 6], [208, 209, 7], [208, 209, 8], [208, 209, 9], [208, 209, 10], [208, 209, 11], [208, 209, 12], [208, 209, 13], [208, 209, 14], [208, 209, 15], [208, 209, 16], [208, 209, 17], [208, 209, 18], [208, 209, 19], [208, 209, 20], [208, 209, 21], [208, 209, 22], [208, 209, 23], [208, 209, 24], [208, 209, 25], [219, 128, 26], [219, 220, 1], [219, 220, 2], [219, 220, 3], [219, 220, 4], [219, 220, 6], [219, 220, 7], [219, 220, 8], [219, 220, 9], [219, 220, 10], [219, 220, 11], [219, 220, 12], [219, 220, 13], [219, 220, 14], [219, 220, 15], [219, 220, 16], [219, 220, 17], [219, 220, 18], [219, 220, 19], [219, 220, 20], [219, 220, 21], [219, 220, 22], [219, 220, 23], [219, 220, 24], [219, 220, 25], [220, 221, 1], [220, 221, 2], [220, 221, 3], [220, 221, 4], [220, 221, 6], [220, 221, 7], [220, 221, 8], [220, 221, 9], [220, 221, 10], [220, 221, 11], [220, 221, 12], [220, 221, 13], [220, 221, 14], [220, 221, 15], [220, 221, 16], [220, 221, 17], [220, 221, 18], [220, 221, 19], [220, 221, 20], [220, 221, 21], [220, 221, 22], [220, 221, 23], [220, 221, 24], [220, 221, 25], [221, 222, 1], [221, 222, 2], [221, 222, 3], [221, 222, 4], [221, 222, 6], [221, 222, 7], [221, 222, 8], [221, 222, 9], [221, 222, 10], [221, 222, 11], [221, 222, 12], [221, 222, 13], [221, 222, 14], [221, 222, 15], [221, 222, 16], [221, 222, 17], [221, 222, 18], [221, 222, 19], [221, 222, 20], [221, 222, 21], [221, 222, 22], [221, 222, 23], [221, 222, 24], [221, 222, 25], [222, 323, 1], [222, 323, 2], [222, 323, 3], [222, 323, 4], [222, 323, 6], [222, 323, 7], [222, 323, 8], [222, 323, 9], [222, 323, 10], [222, 323, 11], [222, 323, 12], [222, 323, 13], [222, 323, 14], [222, 323, 15], [222, 323, 16], [222, 323, 17], [222, 323, 18], [222, 323, 19], [222, 323, 20], [222, 323, 21], [222, 323, 22], [222, 323, 23], [222, 323, 24], [222, 323, 25], [239, 106, 26], [240, 275, 26], [249, 280, 26], [250, 249, 26], [251, 250, 26], [254, 257, 1], [254, 257, 2], [254, 257, 3], [254, 257, 4], [254, 257, 6], [254, 257, 7], [254, 257, 8], [254, 257, 9], [254, 257, 10], [254, 257, 11], [254, 257, 12], [254, 257, 13], [254, 257, 14], [254, 257, 15], [254, 257, 16], [254, 257, 17], [254, 257, 18], [254, 257, 19], [254, 257, 20], [254, 257, 21], [254, 257, 22], [254, 257, 23], [254, 257, 24], [254, 257, 25], [257, 258, 1], [257, 258, 2], [257, 258, 3], [257, 258, 4], [257, 258, 6], [257, 258, 7], [257, 258, 8], [257, 258, 9], [257, 258, 10], [257, 258, 11], [257, 258, 12], [257, 258, 13], [257, 258, 14], [257, 258, 15], [257, 258, 16], [257, 258, 17], [257, 258, 18], [257, 258, 19], [257, 258, 20], [257, 258, 21], [257, 258, 22], [257, 258, 23], [257, 258, 24], [257, 258, 25], [258, 259, 1], [258, 259, 2], [258, 259, 3], [258, 259, 4], [258, 259, 6], [258, 259, 7], [258, 259, 8], [258, 259, 9], [258, 259, 10], [258, 259, 11], [258, 259, 12], [258, 259, 13], [258, 259, 14], [258, 259, 15], [258, 259, 16], [258, 259, 17], [258, 259, 18], [258, 259, 19], [258, 259, 20], [258, 259, 21], [258, 259, 22], [258, 259, 23], [258, 259, 24], [258, 259, 25], [259, 260, 5], [259, 317, 1], [259, 317, 2], [259, 317, 3], [259, 317, 4], [259, 317, 6], [259, 317, 7], [259, 317, 8], [259, 317, 9], [259, 317, 10], [259, 317, 11], [259, 317, 12], [259, 317, 13], [259, 317, 14], [259, 317, 15], [259, 317, 16], [259, 317, 17], [259, 317, 18], [259, 317, 19], [259, 317, 20], [259, 317, 21], [259, 317, 22], [259, 317, 23], [259, 317, 24], [259, 317, 25], [259, 317, 26], [260, 261, 5], [261, 262, 5], [262, 263, 5], [263, 264, 5], [264, 265, 5], [265, 266, 5], [273, 274, 26], [274, 240, 26], [275, 239, 26], [277, 273, 26], [278, 277, 26], [279, 278, 26], [280, 300, 26], [281, 251, 26], [282, 299, 1], [282, 299, 2], [282, 299, 3], [282, 299, 4], [282, 299, 6], [282, 299, 7], [282, 299, 8], [282, 299, 9], [282, 299, 10], [282, 299, 11], [282, 299, 12], [282, 299, 13], [282, 299, 14], [282, 299, 15], [282, 299, 16], [282, 299, 17], [282, 299, 18], [282, 299, 19], [282, 299, 20], [282, 299, 21], [282, 299, 22], [282, 299, 23], [282, 299, 24], [282, 299, 25], [282, 299, 26], [288, 289, 1], [288, 289, 2], [288, 289, 3], [288, 289, 4], [288, 289, 6], [288, 289, 7], [288, 289, 8], [288, 289, 9], [288, 289, 10], [288, 289, 11], [288, 289, 12], [288, 289, 13], [288, 289, 14], [288, 289, 15], [288, 289, 16], [288, 289, 17], [288, 289, 18], [288, 289, 19], [288, 289, 20], [288, 289, 21], [288, 289, 22], [288, 289, 24], [288, 289, 25], [288, 289, 26], [289, 290, 1], [289, 290, 2], [289, 290, 3], [289, 290, 4], [289, 290, 6], [289, 290, 7], [289, 290, 8], [289, 290, 9], [289, 290, 10], [289, 290, 11], [289, 290, 12], [289, 290, 13], [289, 290, 14], [289, 290, 15], [289, 290, 16], [289, 290, 17], [289, 290, 18], [289, 290, 19], [289, 290, 20], [289, 290, 21], [289, 290, 22], [289, 290, 23], [289, 290, 24], [289, 290, 25], [289, 290, 26], [290, 291, 18], [290, 294, 1], [290, 294, 2], [290, 294, 3], [290, 294, 4], [290, 294, 6], [290, 294, 7], [290, 294, 8], [290, 294, 9], [290, 294, 10], [290, 294, 11], [290, 294, 12], [290, 294, 13], [290, 294, 14], [290, 294, 15], [290, 294, 16], [290, 294, 17], [290, 294, 19], [290, 294, 20], [290, 294, 21], [290, 294, 22], [290, 294, 23], [290, 294, 24], [290, 294, 25], [290, 294, 26], [291, 292, 18], [292, 293, 18], [293, 294, 18], [294, 295, 1], [294, 295, 2], [294, 295, 3], [294, 295, 4], [294, 295, 6], [294, 295, 7], [294, 295, 8], [294, 295, 9], [294, 295, 10], [294, 295, 11], [294, 295, 12], [294, 295, 13], [294, 295, 14], [294, 295, 15], [294, 295, 16], [294, 295, 17], [294, 295, 18], [294, 295, 19], [294, 295, 20], [294, 295, 21], [294, 295, 22], [294, 295, 23], [294, 295, 24], [294, 295, 25], [294, 295, 26], [295, 296, 1], [295, 296, 2], [295, 296, 3], [295, 296, 4], [295, 296, 6], [295, 296, 7], [295, 296, 8], [295, 296, 9], [295, 296, 10], [295, 296, 11], [295, 296, 12], [295, 296, 13], [295, 296, 14], [295, 296, 15], [295, 296, 16], [295, 296, 17], [295, 296, 18], [295, 296, 19], [295, 296, 20], [295, 296, 21], [295, 296, 22], [295, 296, 23], [295, 296, 24], [295, 296, 25], [295, 296, 26], [296, 297, 1], [296, 297, 2], [296, 297, 3], [296, 297, 4], [296, 297, 6], [296, 297, 7], [296, 297, 8], [296, 297, 9], [296, 297, 10], [296, 297, 11], [296, 297, 12], [296, 297, 13], [296, 297, 14], [296, 297, 15], [296, 297, 16], [296, 297, 17], [296, 297, 18], [296, 297, 19], [296, 297, 20], [296, 297, 21], [296, 297, 22], [296, 297, 23], [296, 297, 24], [296, 297, 25], [296, 297, 26], [297, 298, 1], [297, 298, 2], [297, 298, 3], [297, 298, 4], [297, 298, 6], [297, 298, 7], [297, 298, 8], [297, 298, 9], [297, 298, 10], [297, 298, 11], [297, 298, 12], [297, 298, 13], [297, 298, 14], [297, 298, 15], [297, 298, 16], [297, 298, 17], [297, 298, 18], [297, 298, 19], [297, 298, 20], [297, 298, 21], [297, 298, 22], [297, 298, 23], [297, 298, 24], [297, 298, 25], [297, 298, 26], [298, 282, 1], [298, 282, 2], [298, 282, 3], [298, 282, 4], [298, 282, 6], [298, 282, 7], [298, 282, 8], [298, 282, 9], [298, 282, 10], [298, 282, 11], [298, 282, 12], [298, 282, 13], [298, 282, 14], [298, 282, 15], [298, 282, 16], [298, 282, 17], [298, 282, 18], [298, 282, 19], [298, 282, 20], [298, 282, 21], [298, 282, 22], [298, 282, 23], [298, 282, 24], [298, 282, 25], [298, 282, 26], [299, 281, 26], [299, 316, 1], [299, 316, 2], [299, 316, 3], [299, 316, 4], [299, 316, 6], [299, 316, 7], [299, 316, 8], [299, 316, 9], [299, 316, 10], [299, 316, 11], [299, 316, 12], [299, 316, 13], [299, 316, 14], [299, 316, 15], [299, 316, 16], [299, 316, 17], [299, 316, 18], [299, 316, 19], [299, 316, 20], [299, 316, 21], [299, 316, 22], [299, 316, 23], [299, 316, 24], [299, 316, 25], [300, 279, 26], [311, 289, 23], [312, 311, 23], [313, 312, 23], [314, 313, 23], [315, 314, 23], [316, 254, 1], [316, 254, 2], [316, 254, 3], [316, 254, 4], [316, 254, 6], [316, 254, 7], [316, 254, 8], [316, 254, 9], [316, 254, 10], [316, 254, 11], [316, 254, 12], [316, 254, 13], [316, 254, 14], [316, 254, 15], [316, 254, 16], [316, 254, 17], [316, 254, 18], [316, 254, 19], [316, 254, 20], [316, 254, 21], [316, 254, 22], [316, 254, 23], [316, 254, 24], [316, 254, 25], [317, 18, 1], [317, 18, 2], [317, 18, 3], [317, 18, 4], [317, 18, 6], [317, 18, 7], [317, 18, 8], [317, 18, 9], [317, 18, 10], [317, 18, 11], [317, 18, 12], [317, 18, 13], [317, 18, 14], [317, 18, 15], [317, 18, 16], [317, 18, 17], [317, 18, 18], [317, 18, 19], [317, 18, 20], [317, 18, 21], [317, 18, 22], [317, 18, 23], [317, 18, 24], [317, 18, 25], [317, 18, 26], [323, 208, 1], [323, 208, 2], [323, 208, 3], [323, 208, 4], [323, 208, 6], [323, 208, 7], [323, 208, 8], [323, 208, 9], [323, 208, 10], [323, 208, 11], [323, 208, 12], [323, 208, 13], [323, 208, 14], [323, 208, 15], [323, 208, 16], [323, 208, 17], [323, 208, 18], [323, 208, 19], [323, 208, 20], [323, 208, 21], [323, 208, 22], [323, 208, 23], [323, 208, 24], [323, 208, 25]]
List of All Routes is {'Route_1': [288, 289, 290, 294, 295, 296, 297, 298, 282, 299, 316, 254, 257, 258, 259, 317, 18, 19, 20, 219, 220, 221, 222, 323, 208, 209], 'Route_1_1': [209, 208, 323, 222, 221, 220, 219, 20, 19, 18, 317, 259, 258, 257, 254, 316, 299, 282, 298, 297, 296, 295, 294, 290, 289, 288], 'Route_2': [288, 289, 290, 294, 295, 296, 297, 298, 282, 299, 316, 254, 257, 258, 259, 317, 18, 19, 20, 219, 220, 221, 222, 323, 208, 209], 'Route_2_1': [209, 208, 323, 222, 221, 220, 219, 20, 19, 18, 317, 259, 258, 257, 254, 316, 299, 282, 298, 297, 296, 295, 294, 290, 289, 288], 'Route_3': [288, 289, 290, 294, 295, 296, 297, 298, 282, 299, 316, 254, 257, 258, 259, 317, 18, 19, 20, 219, 220, 221, 222, 323, 208, 209], 'Route_3_1': [209, 208, 323, 222, 221, 220, 219, 20, 19, 18, 317, 259, 258, 257, 254, 316, 299, 282, 298, 297, 296, 295, 294, 290, 289, 288], 'Route_4': [288, 289, 290, 294, 295, 296, 297, 298, 282, 299, 316, 254, 257, 258, 259, 317, 18, 19, 20, 219, 220, 221, 222, 323, 208, 209], 'Route_4_1': [209, 208, 323, 222, 221, 220, 219, 20, 19, 18, 317, 259, 258, 257, 254, 316, 299, 282, 298, 297, 296, 295, 294, 290, 289, 288], 'Route_5': [183, 174, 173, 172, 171, 170, 169, 168, 149, 148, 147, 130, 129, 128, 38, 19, 127, 39, 139, 126, 259, 260, 261, 262, 263, 264, 265, 266], 'Route_5_1': [266, 265, 264, 263, 262, 261, 260, 259, 126, 139, 39, 127, 19, 38, 128, 129, 130, 147, 148, 149, 168, 169, 170, 171, 172, 173, 174, 183], 'Route_6': [288, 289, 290, 294, 295, 296, 297, 298, 282, 299, 316, 254, 257, 258, 259, 317, 18, 19, 20, 219, 220, 221, 222, 323, 208, 209], 'Route_6_1': [209, 208, 323, 222, 221, 220, 219, 20, 19, 18, 317, 259, 258, 257, 254, 316, 299, 282, 298, 297, 296, 295, 294, 290, 289, 288], 'Route_7': [288, 289, 290, 294, 295, 296, 297, 298, 282, 299, 316, 254, 257, 258, 259, 317, 18, 19, 20, 219, 220, 221, 222, 323, 208, 209], 'Route_7_1': [209, 208, 323, 222, 221, 220, 219, 20, 19, 18, 317, 259, 258, 257, 254, 316, 299, 282, 298, 297, 296, 295, 294, 290, 289, 288], 'Route_8': [288, 289, 290, 294, 295, 296, 297, 298, 282, 299, 316, 254, 257, 258, 259, 317, 18, 19, 20, 219, 220, 221, 222, 323, 208, 209], 'Route_8_1': [209, 208, 323, 222, 221, 220, 219, 20, 19, 18, 317, 259, 258, 257, 254, 316, 299, 282, 298, 297, 296, 295, 294, 290, 289, 288], 'Route_9': [288, 289, 290, 294, 295, 296, 297, 298, 282, 299, 316, 254, 257, 258, 259, 317, 18, 19, 20, 219, 220, 221, 222, 323, 208, 209], 'Route_9_1': [209, 208, 323, 222, 221, 220, 219, 20, 19, 18, 317, 259, 258, 257, 254, 316, 299, 282, 298, 297, 296, 295, 294, 290, 289, 288], 'Route_10': [288, 289, 290, 294, 295, 296, 297, 298, 282, 299, 316, 254, 257, 258, 259, 317, 18, 19, 20, 219, 220, 221, 222, 323, 208, 209], 'Route_10_1': [209, 208, 323, 222, 221, 220, 219, 20, 19, 18, 317, 259, 258, 257, 254, 316, 299, 282, 298, 297, 296, 295, 294, 290, 289, 288], 'Route_11': [288, 289, 290, 294, 295, 296, 297, 298, 282, 299, 316, 254, 257, 258, 259, 317, 18, 19, 20, 219, 220, 221, 222, 323, 208, 209], 'Route_11_1': [209, 208, 323, 222, 221, 220, 219, 20, 19, 18, 317, 259, 258, 257, 254, 316, 299, 282, 298, 297, 296, 295, 294, 290, 289, 288], 'Route_12': [288, 289, 290, 294, 295, 296, 297, 298, 282, 299, 316, 254, 257, 258, 259, 317, 18, 19, 20, 219, 220, 221, 222, 323, 208, 209], 'Route_12_1': [209, 208, 323, 222, 221, 220, 219, 20, 19, 18, 317, 259, 258, 257, 254, 316, 299, 282, 298, 297, 296, 295, 294, 290, 289, 288], 'Route_13': [288, 289, 290, 294, 295, 296, 297, 298, 282, 299, 316, 254, 257, 258, 259, 317, 18, 19, 20, 219, 220, 221, 222, 323, 208, 209], 'Route_13_1': [209, 208, 323, 222, 221, 220, 219, 20, 19, 18, 317, 259, 258, 257, 254, 316, 299, 282, 298, 297, 296, 295, 294, 290, 289, 288], 'Route_14': [288, 289, 290, 294, 295, 296, 297, 298, 282, 299, 316, 254, 257, 258, 259, 317, 18, 19, 20, 219, 220, 221, 222, 323, 208, 209], 'Route_14_1': [209, 208, 323, 222, 221, 220, 219, 20, 19, 18, 317, 259, 258, 257, 254, 316, 299, 282, 298, 297, 296, 295, 294, 290, 289, 288], 'Route_15': [288, 289, 290, 294, 295, 296, 297, 298, 282, 299, 316, 254, 257, 258, 259, 317, 18, 19, 20, 219, 220, 221, 222, 323, 208, 209], 'Route_15_1': [209, 208, 323, 222, 221, 220, 219, 20, 19, 18, 317, 259, 258, 257, 254, 316, 299, 282, 298, 297, 296, 295, 294, 290, 289, 288], 'Route_16': [288, 289, 290, 294, 295, 296, 297, 298, 282, 299, 316, 254, 257, 258, 259, 317, 18, 19, 20, 219, 220, 221, 222, 323, 208, 209], 'Route_16_1': [209, 208, 323, 222, 221, 220, 219, 20, 19, 18, 317, 259, 258, 257, 254, 316, 299, 282, 298, 297, 296, 295, 294, 290, 289, 288], 'Route_17': [288, 289, 290, 294, 295, 296, 297, 298, 282, 299, 316, 254, 257, 258, 259, 317, 18, 19, 20, 219, 220, 221, 222, 323, 208, 209], 'Route_17_1': [209, 208, 323, 222, 221, 220, 219, 20, 19, 18, 317, 259, 258, 257, 254, 316, 299, 282, 298, 297, 296, 295, 294, 290, 289, 288], 'Route_18': [288, 289, 290, 291, 292, 293, 294, 295, 296, 297, 298, 282, 299, 316, 254, 257, 258, 259, 317, 18, 19, 20, 219, 220, 221, 222, 323, 208, 209], 'Route_18_1': [209, 208, 323, 222, 221, 220, 219, 20, 19, 18, 317, 259, 258, 257, 254, 316, 299, 282, 298, 297, 296, 295, 294, 293, 292, 291, 290, 289, 288], 'Route_19': [288, 289, 290, 294, 295, 296, 297, 298, 282, 299, 316, 254, 257, 258, 259, 317, 18, 19, 20, 219, 220, 221, 222, 323, 208, 209], 'Route_19_1': [209, 208, 323, 222, 221, 220, 219, 20, 19, 18, 317, 259, 258, 257, 254, 316, 299, 282, 298, 297, 296, 295, 294, 290, 289, 288], 'Route_20': [288, 289, 290, 294, 295, 296, 297, 298, 282, 299, 316, 254, 257, 258, 259, 317, 18, 19, 20, 219, 220, 221, 222, 323, 208, 209], 'Route_20_1': [209, 208, 323, 222, 221, 220, 219, 20, 19, 18, 317, 259, 258, 257, 254, 316, 299, 282, 298, 297, 296, 295, 294, 290, 289, 288], 'Route_21': [288, 289, 290, 294, 295, 296, 297, 298, 282, 299, 316, 254, 257, 258, 259, 317, 18, 19, 20, 219, 220, 221, 222, 323, 208, 209], 'Route_21_1': [209, 208, 323, 222, 221, 220, 219, 20, 19, 18, 317, 259, 258, 257, 254, 316, 299, 282, 298, 297, 296, 295, 294, 290, 289, 288], 'Route_22': [288, 289, 290, 294, 295, 296, 297, 298, 282, 299, 316, 254, 257, 258, 259, 317, 18, 19, 20, 219, 220, 221, 222, 323, 208, 209], 'Route_22_1': [209, 208, 323, 222, 221, 220, 219, 20, 19, 18, 317, 259, 258, 257, 254, 316, 299, 282, 298, 297, 296, 295, 294, 290, 289, 288], 'Route_23': [315, 314, 313, 312, 311, 289, 290, 294, 295, 296, 297, 298, 282, 299, 316, 254, 257, 258, 259, 317, 18, 19, 20, 219, 220, 221, 222, 323, 208, 209], 'Route_23_1': [209, 208, 323, 222, 221, 220, 219, 20, 19, 18, 317, 259, 258, 257, 254, 316, 299, 282, 298, 297, 296, 295, 294, 290, 289, 311, 312, 313, 314, 315], 'Route_24': [288, 289, 290, 294, 295, 296, 297, 298, 282, 299, 316, 254, 257, 258, 259, 317, 18, 19, 20, 219, 220, 221, 222, 323, 208, 209], 'Route_24_1': [209, 208, 323, 222, 221, 220, 219, 20, 19, 18, 317, 259, 258, 257, 254, 316, 299, 282, 298, 297, 296, 295, 294, 290, 289, 288], 'Route_25': [288, 289, 290, 294, 295, 296, 297, 298, 282, 299, 316, 254, 257, 258, 259, 317, 18, 19, 20, 219, 220, 221, 222, 323, 208, 209], 'Route_25_1': [209, 208, 323, 222, 221, 220, 219, 20, 19, 18, 317, 259, 258, 257, 254, 316, 299, 282, 298, 297, 296, 295, 294, 290, 289, 288], 'Route_26': [288, 289, 290, 294, 295, 296, 297, 298, 282, 299, 281, 251, 250, 249, 280, 300, 279, 278, 277, 273, 274, 240, 275, 239, 106, 107, 108, 109, 110, 111, 112, 113, 141, 142, 143, 144, 145, 126, 259, 317, 18, 127, 19, 20, 219, 128, 129, 130, 137], 'Route_26_1': [137, 130, 129, 128, 219, 20, 19, 127, 18, 317, 259, 126, 145, 144, 143, 142, 141, 113, 112, 111, 110, 109, 108, 107, 106, 239, 275, 240, 274, 273, 277, 278, 279, 300, 280, 249, 250, 251, 281, 299, 282, 298, 297, 296, 295, 294, 290, 289, 288]}
